Route #1: 1 41 35 39 28 22 9 18 31 47 1
Route #2: 1 8 42 55 32 2 53 63 1
Route #3: 1 48 62 19 51 11 34 10 4 1
Route #4: 1 33 38 13 30 12 14 1
Route #5: 1 17 57 29 60 36 37 61 49 25 1
Route #6: 1 44 50 27 40 1
Route #7: 1 58 21 64 3 43 26 24 1
Route #8: 1 7 54 46 45 59 16 23 56 5 1
Route #9: 1 15 6 20 52 1
cost 1042
